K = 3;
V = 25;
edge_weight = [|0, -1, -1, -1, -1, -1, -1, -1, -1, -1, -1, 94, -1, -1, -1, -1, -1, -1, -1, -1, -1, -1, -1, -1, -1|
-1, 0, -1, -1, -1, -1, -1, -1, -1, -1, -1, -1, -1, -1, -1, -1, -1, 19, -1, -1, -1, -1, -1, -1, -1|
-1, 80, 0, -1, -1, -1, -1, -1, 7, -1, 80, -1, -1, -1, -1, -1, -1, -1, -1, -1, 62, -1, 43, -1, -1|
-1, -1, -1, 0, -1, -1, -1, -1, -1, -1, 78, -1, -1, -1, -1, -1, -1, -1, 31, -1, -1, -1, 13, -1, 56|
60, -1, -1, -1, 0, -1, -1, -1, -1, -1, -1, -1, -1, -1, -1, -1, -1, -1, -1, -1, -1, -1, -1, -1, -1|
-1, -1, 7, -1, -1, 0, -1, -1, -1, -1, -1, -1, -1, -1, -1, -1, -1, -1, -1, -1, 83, -1, -1, -1, -1|
-1, -1, -1, -1, -1, -1, 0, -1, -1, -1, -1, -1, -1, -1, -1, -1, -1, -1, -1, -1, -1, -1, 80, -1, -1|
-1, 51, -1, 1, -1, 61, -1, 0, -1, -1, -1, -1, -1, -1, 28, -1, -1, -1, -1, -1, -1, -1, 8, -1, 63|
-1, -1, -1, -1, -1, -1, -1, -1, 0, -1, -1, -1, -1, -1, -1, -1, -1, -1, 84, -1, -1, -1, -1, -1, -1|
-1, 72, 70, -1, -1, -1, -1, -1, -1, 0, -1, -1, -1, -1, -1, 83, -1, -1, -1, -1, -1, -1, -1, -1, -1|
-1, -1, -1, -1, -1, 79, -1, -1, -1, -1, 0, -1, -1, -1, -1, -1, -1, -1, -1, -1, -1, -1, -1, -1, -1|
-1, -1, -1, -1, -1, -1, -1, -1, -1, -1, -1, 0, -1, -1, -1, -1, 63, -1, -1, -1, -1, -1, -1, -1, -1|
-1, -1, -1, -1, 38, -1, -1, 88, -1, -1, -1, -1, 0, -1, -1, -1, -1, -1, -1, -1, -1, -1, -1, -1, -1|
-1, -1, 96, -1, -1, -1, -1, 27, -1, -1, -1, -1, -1, 0, -1, -1, -1, -1, -1, -1, -1, -1, -1, 28, -1|
-1, 48, -1, -1, -1, -1, 22, -1, -1, -1, -1, -1, -1, 14, 0, -1, -1, -1, -1, -1, -1, -1, -1, -1, -1|
-1, 95, -1, -1, -1, -1, 86, -1, 10, 7, -1, -1, -1, -1, -1, 0, -1, -1, -1, -1, -1, -1, -1, -1, -1|
-1, -1, -1, -1, -1, -1, -1, -1, -1, -1, -1, -1, -1, -1, -1, -1, 0, -1, -1, -1, -1, -1, -1, -1, 84|
-1, -1, -1, -1, -1, -1, -1, -1, 8, -1, -1, -1, -1, -1, -1, -1, -1, 0, -1, 7, -1, -1, -1, -1, 93|
-1, -1, -1, -1, -1, -1, -1, -1, 30, -1, -1, -1, -1, 98, -1, -1, -1, -1, 0, -1, -1, -1, -1, -1, -1|
-1, -1, -1, -1, -1, -1, -1, -1, -1, -1, -1, -1, 56, -1, -1, -1, -1, 21, -1, 0, -1, -1, -1, -1, -1|
-1, 56, -1, 59, -1, 35, -1, -1, -1, -1, -1, -1, 15, -1, -1, -1, -1, -1, -1, -1, 0, -1, -1, -1, -1|
-1, -1, -1, -1, 47, -1, -1, -1, -1, -1, -1, 92, -1, -1, -1, -1, -1, -1, -1, -1, -1, 0, -1, -1, -1|
-1, -1, -1, -1, -1, 18, -1, -1, -1, -1, -1, -1, -1, -1, -1, -1, -1, 51, -1, -1, -1, 25, 0, -1, -1|
-1, -1, -1, -1, -1, -1, -1, -1, -1, -1, -1, -1, -1, 61, -1, -1, -1, -1, -1, -1, -1, -1, -1, 0, -1|
-1, -1, -1, -1, -1, -1, -1, 74, -1, -1, 16, -1, -1, -1, -1, 25, -1, -1, -1, 87, -1, 13, -1, -1, 0|];
